; aiomysql :: corpus-study/repo_src/aiomysql/aiomysql/connection.py :: wait_for at _connect:527 :: structured encoding (verdict: sat)
; Generated by snf-pipeline (encoder.py) -- run with any
; SMT-LIB2-compliant solver, e.g. `z3 aiomysql__corpus-study_repo_src_aiomysql_aiomysql_connection.py__waitfor__connect_L527__structured.smt2`
; benchmark generated from python API
(set-info :status unknown)
(declare-fun timeout_fires () Bool)
(declare-fun completes_first () Bool)
(declare-fun cleanup_ran () Bool)
(assert
 (or completes_first timeout_fires))
(assert
 (let (($x27 (not cleanup_ran)))
(and timeout_fires $x27)))
(check-sat)
